data/solutions/planning/wellformed/moderate/sequential/wellformed_moderate_instance96_cplex.sol
Elapsed time: 0.63
Nodes explored: -
Nodes left: -
Relative gap: -
Upper bound: 573600.0
Lower bound: -
C[0]=9105.0
C[1]=9105.0
C[2]=9104.0
C[3]=9104.0
C[4]=9104.0
C[5]=9104.0
y[0]=5
y[1]=4
y[2]=0
y[3]=2
y[4]=5
y[5]=4
y[6]=0
y[7]=5
y[8]=3
y[9]=3
y[10]=5
y[11]=5
y[12]=4
y[13]=3
y[14]=0
y[15]=1
y[16]=5
y[17]=3
y[18]=2
y[19]=0
y[20]=3
y[21]=1
y[22]=4
y[23]=4
y[24]=2
y[25]=1
y[26]=5
y[27]=0
y[28]=4
y[29]=5
y[30]=5
y[31]=2
y[32]=1
y[33]=5
y[34]=3
y[35]=4
y[36]=3
y[37]=1
y[38]=1
y[39]=0
y[40]=1
y[41]=5
y[42]=2
y[43]=4
y[44]=2
y[45]=5
y[46]=3
y[47]=2
y[48]=2
y[49]=2
